p tw 56 683
0 1
0 2
0 3
0 4
0 5
0 6
0 7
0 8
0 9
0 10
0 11
0 14
0 26
0 27
0 28
0 29
0 30
0 31
0 32
0 16
0 17
0 18
0 20
0 33
0 39
0 46
0 48
0 55
1 2
1 3
1 4
1 5
1 6
1 7
1 8
1 9
1 10
1 11
1 14
1 26
1 27
1 28
1 29
1 30
1 31
1 32
1 35
1 36
1 38
1 39
1 40
1 41
1 42
1 43
1 44
1 16
1 24
1 50
1 53
1 20
1 23
1 33
1 49
2 3
2 4
2 5
2 6
2 7
2 8
2 9
2 10
2 11
2 12
2 13
2 14
2 15
2 16
2 17
2 30
2 34
2 37
2 38
2 39
2 45
2 46
2 47
2 48
2 20
2 23
2 29
2 33
2 36
2 49
3 4
3 5
3 6
3 7
3 8
3 9
3 10
3 11
3 12
3 13
3 14
3 15
3 16
3 17
3 31
3 33
3 34
3 35
3 36
3 37
3 24
3 28
3 30
3 50
3 51
3 29
3 53
3 20
3 23
3 49
4 5
4 6
4 7
4 8
4 9
4 10
4 11
4 12
4 13
4 14
4 15
4 16
4 17
4 26
4 33
4 35
4 36
4 37
4 39
4 40
4 45
4 52
4 18
4 20
4 46
4 48
4 55
5 6
5 7
5 8
5 9
5 10
5 11
5 24
5 28
5 30
5 31
5 33
5 50
5 51
5 14
5 16
5 29
5 53
6 7
6 8
6 9
6 10
6 11
6 12
6 13
6 14
6 15
6 16
6 17
6 24
6 28
6 30
6 31
6 33
6 50
6 51
6 22
6 34
6 39
6 41
6 45
6 54
7 8
7 9
7 10
7 11
7 12
7 15
7 16
7 31
7 33
7 34
7 35
7 36
7 37
7 19
7 22
7 32
7 39
7 41
7 42
7 49
7 14
7 24
7 28
7 29
7 50
7 53
8 9
8 10
8 11
8 12
8 15
8 16
8 31
8 33
8 34
8 35
8 36
8 37
8 19
8 22
8 32
8 39
8 41
8 42
8 49
8 14
8 24
8 28
8 29
8 50
8 53
8 17
8 18
8 20
8 46
8 48
8 55
8 23
9 10
9 11
9 16
9 20
9 23
9 29
9 33
9 36
9 49
10 11
10 14
10 26
10 27
10 28
10 29
10 30
10 31
10 32
10 19
10 22
10 34
10 35
10 36
10 39
10 41
10 42
10 49
10 24
10 33
10 50
10 51
11 12
11 13
11 14
11 15
11 16
11 17
11 31
11 33
11 34
11 35
11 36
11 37
11 26
11 39
11 40
11 45
11 52
12 13
12 14
12 15
12 16
12 17
12 31
12 33
12 34
12 35
12 36
12 37
13 14
13 15
13 16
13 17
13 30
13 34
13 37
13 38
13 39
13 45
13 46
13 47
13 48
13 26
13 33
13 35
13 36
13 40
13 52
14 15
14 16
14 17
14 26
14 27
14 28
14 29
14 30
14 31
14 32
14 24
14 50
14 53
14 22
14 34
14 39
14 41
14 45
14 54
15 16
15 17
15 31
15 33
15 34
15 35
15 36
15 37
15 30
15 38
15 39
15 45
15 46
15 47
15 48
16 17
16 18
16 19
16 20
16 21
16 22
16 23
16 24
16 25
16 26
16 31
16 33
16 34
16 35
16 36
16 37
16 28
16 29
16 50
16 53
16 39
16 41
16 45
16 54
16 46
16 48
16 55
16 49
17 18
17 19
17 20
17 21
17 22
17 23
17 24
17 25
17 26
17 33
17 39
17 46
17 48
17 55
18 19
18 20
18 21
18 22
18 23
18 24
18 25
18 26
18 33
18 39
18 46
18 48
18 55
19 20
19 21
19 22
19 23
19 24
19 25
19 26
19 32
19 34
19 35
19 36
19 39
19 41
19 42
19 49
20 21
20 22
20 23
20 24
20 25
20 26
20 33
20 39
20 46
20 48
20 55
20 29
20 36
20 49
21 22
21 23
21 24
21 25
21 26
22 23
22 24
22 25
22 26
22 32
22 34
22 35
22 36
22 39
22 41
22 42
22 49
22 28
22 45
22 50
22 54
23 24
23 25
23 26
23 29
23 33
23 36
23 49
24 25
24 26
24 28
24 30
24 31
24 33
24 50
24 51
24 29
24 53
25 26
26 27
26 28
26 29
26 30
26 31
26 32
26 33
26 35
26 36
26 37
26 39
26 40
26 45
26 52
27 28
27 29
27 30
27 31
27 32
27 35
27 36
27 38
27 39
27 40
27 41
27 42
27 43
27 44
28 29
28 30
28 31
28 32
28 33
28 50
28 51
28 53
28 34
28 39
28 41
28 45
28 54
29 30
29 31
29 32
29 35
29 36
29 38
29 39
29 40
29 41
29 42
29 43
29 44
29 50
29 53
29 33
29 49
30 31
30 32
30 34
30 37
30 38
30 39
30 45
30 46
30 47
30 48
30 33
30 50
30 51
31 32
31 33
31 34
31 35
31 36
31 37
31 50
31 51
32 34
32 35
32 36
32 39
32 41
32 42
32 49
33 34
33 35
33 36
33 37
33 50
33 51
33 39
33 40
33 45
33 52
33 46
33 48
33 55
33 49
34 35
34 36
34 37
34 38
34 39
34 45
34 46
34 47
34 48
34 41
34 42
34 49
34 50
34 54
35 36
35 37
35 38
35 39
35 40
35 41
35 42
35 43
35 44
35 49
35 45
35 52
36 37
36 38
36 39
36 40
36 41
36 42
36 43
36 44
36 49
36 45
36 52
37 38
37 39
37 45
37 46
37 47
37 48
37 40
37 52
38 39
38 40
38 41
38 42
38 43
38 44
38 45
38 46
38 47
38 48
39 40
39 41
39 42
39 43
39 44
39 45
39 46
39 47
39 48
39 49
39 52
39 50
39 54
39 55
40 41
40 42
40 43
40 44
40 45
40 52
41 42
41 43
41 44
41 49
41 45
41 50
41 54
42 43
42 44
42 49
43 44
45 46
45 47
45 48
45 52
45 50
45 54
46 47
46 48
46 55
47 48
48 55
50 51
50 53
50 54
